[VALIDATOR STDOUT]
Checking plan: /home/jfan5/Safety-gen/runs/benchmark/optic/delivery_20260201_172908/delivery/optic_results/delivery_size16_packages1_seed16001.plan
Plan executed successfully - checking goal
Plan valid
Final value: 63 

Successful plans:
Value: 63
 /home/jfan5/Safety-gen/runs/benchmark/optic/delivery_20260201_172908/delivery/optic_results/delivery_size16_packages1_seed16001.plan 63
